c File: data_files/evolved_graphs/g0406.col
c
c Auto generated graph
c
p edge 100 1390
e 1 4
e 1 5
e 1 25
e 1 27
e 1 28
e 1 30
e 1 31
e 1 32
e 1 33
e 1 34
e 1 35
e 1 36
e 1 37
e 1 39
e 1 40
e 1 42
e 1 43
e 1 44
e 1 46
e 1 47
e 1 48
e 1 49
e 1 52
e 1 54
e 1 55
e 1 56
e 1 61
e 1 64
e 1 65
e 1 66
e 1 68
e 1 70
e 1 74
e 1 77
e 1 78
e 1 83
e 1 86
e 1 88
e 1 93
e 1 98
e 1 99
e 2 4
e 2 25
e 2 26
e 2 27
e 2 28
e 2 29
e 2 30
e 2 31
e 2 32
e 2 33
e 2 34
e 2 35
e 2 36
e 2 37
e 2 38
e 2 40
e 2 41
e 2 42
e 2 44
e 2 45
e 2 46
e 2 52
e 2 56
e 2 61
e 2 63
e 2 64
e 2 65
e 2 67
e 2 72
e 2 75
e 2 77
e 2 79
e 2 82
e 2 83
e 2 84
e 2 89
e 2 91
e 2 97
e 3 4
e 3 25
e 3 26
e 3 27
e 3 28
e 3 29
e 3 30
e 3 31
e 3 32
e 3 33
e 3 34
e 3 35
e 3 36
e 3 37
e 3 41
e 3 42
e 3 44
e 3 45
e 3 46
e 3 48
e 3 50
e 3 53
e 3 54
e 3 58
e 3 59
e 3 60
e 3 62
e 3 64
e 3 65
e 3 68
e 3 71
e 3 73
e 3 74
e 3 75
e 3 76
e 3 79
e 3 80
e 3 81
e 3 84
e 3 86
e 3 88
e 3 90
e 3 94
e 3 96
e 3 97
e 3 98
e 4 6
e 4 25
e 4 26
e 4 27
e 4 28
e 4 29
e 4 30
e 4 31
e 4 32
e 4 33
e 4 34
e 4 36
e 4 37
e 4 39
e 4 43
e 4 44
e 4 46
e 4 52
e 4 53
e 4 56
e 4 58
e 4 59
e 4 61
e 4 65
e 4 66
e 4 68
e 4 72
e 4 74
e 4 75
e 4 76
e 4 77
e 4 78
e 4 83
e 4 86
e 4 88
e 4 90
e 4 91
e 4 92
e 4 94
e 4 97
e 5 25
e 5 26
e 5 27
e 5 28
e 5 29
e 5 30
e 5 31
e 5 32
e 5 33
e 5 34
e 5 35
e 5 36
e 5 37
e 5 46
e 5 47
e 5 50
e 5 53
e 5 56
e 5 57
e 5 58
e 5 59
e 5 61
e 5 66
e 5 73
e 5 76
e 5 86
e 5 87
e 5 88
e 5 94
e 5 95
e 5 96
e 5 99
e 6 24
e 6 25
e 6 26
e 6 27
e 6 28
e 6 29
e 6 30
e 6 31
e 6 32
e 6 33
e 6 34
e 6 35
e 6 36
e 6 37
e 6 40
e 6 42
e 6 44
e 6 46
e 6 47
e 6 49
e 6 50
e 6 51
e 6 52
e 6 55
e 6 58
e 6 59
e 6 61
e 6 62
e 6 63
e 6 64
e 6 67
e 6 70
e 6 71
e 6 74
e 6 76
e 6 78
e 6 79
e 6 82
e 6 83
e 6 85
e 6 90
e 6 94
e 6 95
e 6 99
e 6 100
e 7 25
e 7 26
e 7 27
e 7 28
e 7 29
e 7 30
e 7 31
e 7 32
e 7 33
e 7 34
e 7 35
e 7 36
e 7 37
e 7 40
e 7 41
e 7 42
e 7 45
e 7 46
e 7 47
e 7 48
e 7 51
e 7 52
e 7 55
e 7 60
e 7 63
e 7 64
e 7 65
e 7 70
e 7 72
e 7 74
e 7 77
e 7 78
e 7 79
e 7 80
e 7 81
e 7 82
e 7 89
e 7 90
e 7 92
e 7 93
e 7 94
e 7 95
e 7 96
e 7 97
e 7 98
e 8 24
e 8 25
e 8 26
e 8 27
e 8 28
e 8 29
e 8 30
e 8 31
e 8 32
e 8 33
e 8 34
e 8 35
e 8 36
e 8 37
e 8 44
e 8 46
e 8 47
e 8 48
e 8 50
e 8 51
e 8 53
e 8 55
e 8 56
e 8 57
e 8 58
e 8 61
e 8 66
e 8 67
e 8 68
e 8 69
e 8 73
e 8 74
e 8 75
e 8 76
e 8 77
e 8 79
e 8 80
e 8 89
e 8 92
e 9 25
e 9 26
e 9 27
e 9 28
e 9 29
e 9 30
e 9 31
e 9 32
e 9 33
e 9 34
e 9 35
e 9 36
e 9 37
e 9 41
e 9 42
e 9 44
e 9 47
e 9 49
e 9 52
e 9 53
e 9 54
e 9 56
e 9 57
e 9 59
e 9 63
e 9 65
e 9 67
e 9 72
e 9 74
e 9 76
e 9 78
e 9 80
e 9 81
e 9 83
e 9 84
e 9 87
e 9 89
e 9 91
e 9 92
e 9 94
e 9 96
e 9 98
e 10 25
e 10 26
e 10 27
e 10 28
e 10 29
e 10 30
e 10 31
e 10 32
e 10 33
e 10 34
e 10 35
e 10 36
e 10 37
e 10 39
e 10 41
e 10 44
e 10 46
e 10 48
e 10 51
e 10 53
e 10 60
e 10 61
e 10 62
e 10 63
e 10 64
e 10 70
e 10 72
e 10 73
e 10 77
e 10 78
e 10 81
e 10 83
e 10 88
e 10 89
e 10 92
e 10 94
e 10 95
e 10 98
e 11 25
e 11 26
e 11 27
e 11 28
e 11 29
e 11 30
e 11 31
e 11 32
e 11 33
e 11 34
e 11 35
e 11 36
e 11 37
e 11 38
e 11 40
e 11 43
e 11 44
e 11 45
e 11 50
e 11 51
e 11 53
e 11 55
e 11 61
e 11 64
e 11 66
e 11 70
e 11 72
e 11 73
e 11 78
e 11 79
e 11 80
e 11 82
e 11 83
e 11 85
e 11 87
e 11 88
e 11 90
e 11 93
e 11 98
e 11 99
e 12 25
e 12 26
e 12 27
e 12 28
e 12 29
e 12 30
e 12 31
e 12 32
e 12 33
e 12 34
e 12 35
e 12 36
e 12 37
e 12 39
e 12 40
e 12 41
e 12 42
e 12 44
e 12 46
e 12 47
e 12 48
e 12 49
e 12 53
e 12 54
e 12 55
e 12 58
e 12 59
e 12 61
e 12 62
e 12 64
e 12 66
e 12 67
e 12 68
e 12 69
e 12 71
e 12 75
e 12 76
e 12 78
e 12 79
e 12 85
e 12 87
e 12 90
e 12 93
e 12 99
e 12 100
e 13 25
e 13 26
e 13 27
e 13 28
e 13 29
e 13 30
e 13 31
e 13 32
e 13 33
e 13 34
e 13 35
e 13 36
e 13 37
e 13 39
e 13 41
e 13 45
e 13 46
e 13 47
e 13 48
e 13 51
e 13 55
e 13 59
e 13 62
e 13 65
e 13 67
e 13 68
e 13 69
e 13 70
e 13 71
e 13 72
e 13 73
e 13 75
e 13 79
e 13 80
e 13 81
e 13 84
e 13 85
e 13 89
e 13 90
e 13 91
e 13 92
e 13 95
e 13 96
e 13 99
e 13 100
e 14 25
e 14 26
e 14 27
e 14 28
e 14 29
e 14 30
e 14 31
e 14 32
e 14 33
e 14 34
e 14 35
e 14 36
e 14 37
e 14 38
e 14 41
e 14 42
e 14 45
e 14 49
e 14 50
e 14 51
e 14 55
e 14 56
e 14 57
e 14 59
e 14 60
e 14 63
e 14 64
e 14 66
e 14 67
e 14 68
e 14 69
e 14 74
e 14 77
e 14 78
e 14 80
e 14 86
e 14 88
e 14 90
e 14 92
e 15 25
e 15 26
e 15 27
e 15 28
e 15 29
e 15 30
e 15 31
e 15 32
e 15 33
e 15 34
e 15 35
e 15 36
e 15 37
e 15 38
e 15 39
e 15 41
e 15 42
e 15 43
e 15 49
e 15 51
e 15 52
e 15 53
e 15 55
e 15 56
e 15 58
e 15 60
e 15 61
e 15 62
e 15 63
e 15 64
e 15 65
e 15 68
e 15 69
e 15 71
e 15 72
e 15 74
e 15 76
e 15 77
e 15 78
e 15 86
e 15 87
e 15 89
e 15 92
e 15 93
e 15 96
e 15 97
e 16 25
e 16 27
e 16 28
e 16 29
e 16 30
e 16 31
e 16 32
e 16 33
e 16 34
e 16 35
e 16 36
e 16 37
e 16 44
e 16 45
e 16 47
e 16 48
e 16 49
e 16 52
e 16 60
e 16 62
e 16 64
e 16 67
e 16 68
e 16 71
e 16 73
e 16 75
e 16 77
e 16 78
e 16 84
e 16 85
e 16 86
e 16 87
e 16 88
e 16 89
e 16 91
e 16 92
e 16 93
e 16 94
e 16 96
e 17 25
e 17 27
e 17 28
e 17 29
e 17 30
e 17 31
e 17 32
e 17 33
e 17 34
e 17 35
e 17 36
e 17 37
e 17 39
e 17 40
e 17 41
e 17 43
e 17 44
e 17 46
e 17 47
e 17 48
e 17 49
e 17 50
e 17 53
e 17 57
e 17 58
e 17 61
e 17 64
e 17 65
e 17 66
e 17 70
e 17 71
e 17 72
e 17 74
e 17 75
e 17 76
e 17 81
e 17 82
e 17 83
e 17 84
e 17 85
e 17 86
e 17 90
e 17 92
e 17 97
e 17 98
e 17 99
e 18 25
e 18 26
e 18 27
e 18 28
e 18 29
e 18 30
e 18 31
e 18 32
e 18 33
e 18 34
e 18 35
e 18 36
e 18 37
e 18 38
e 18 41
e 18 43
e 18 44
e 18 46
e 18 49
e 18 51
e 18 53
e 18 56
e 18 59
e 18 60
e 18 63
e 18 65
e 18 66
e 18 69
e 18 70
e 18 71
e 18 73
e 18 74
e 18 75
e 18 76
e 18 77
e 18 78
e 18 82
e 18 83
e 18 84
e 18 86
e 18 88
e 18 94
e 18 96
e 18 100
e 19 25
e 19 26
e 19 27
e 19 28
e 19 29
e 19 30
e 19 31
e 19 32
e 19 33
e 19 34
e 19 35
e 19 36
e 19 37
e 19 41
e 19 42
e 19 44
e 19 53
e 19 55
e 19 57
e 19 60
e 19 61
e 19 62
e 19 66
e 19 68
e 19 69
e 19 70
e 19 71
e 19 73
e 19 76
e 19 80
e 19 81
e 19 85
e 19 86
e 19 87
e 19 90
e 19 91
e 19 92
e 19 93
e 19 95
e 19 96
e 19 99
e 19 100
e 20 25
e 20 26
e 20 27
e 20 28
e 20 29
e 20 30
e 20 31
e 20 32
e 20 33
e 20 34
e 20 35
e 20 36
e 20 37
e 20 40
e 20 42
e 20 45
e 20 48
e 20 50
e 20 51
e 20 52
e 20 54
e 20 55
e 20 61
e 20 62
e 20 63
e 20 64
e 20 65
e 20 66
e 20 67
e 20 69
e 20 71
e 20 73
e 20 75
e 20 77
e 20 78
e 20 80
e 20 81
e 20 82
e 20 83
e 20 86
e 20 88
e 20 89
e 20 90
e 20 91
e 20 92
e 20 96
e 20 97
e 20 98
e 20 99
e 21 25
e 21 26
e 21 27
e 21 28
e 21 29
e 21 30
e 21 31
e 21 32
e 21 33
e 21 34
e 21 35
e 21 36
e 21 37
e 21 40
e 21 41
e 21 42
e 21 43
e 21 44
e 21 45
e 21 49
e 21 52
e 21 54
e 21 57
e 21 58
e 21 60
e 21 62
e 21 71
e 21 78
e 21 79
e 21 83
e 21 86
e 21 89
e 21 90
e 21 91
e 21 92
e 21 93
e 21 98
e 22 25
e 22 26
e 22 27
e 22 28
e 22 29
e 22 30
e 22 31
e 22 32
e 22 33
e 22 34
e 22 35
e 22 36
e 22 37
e 22 39
e 22 40
e 22 41
e 22 42
e 22 48
e 22 52
e 22 57
e 22 59
e 22 60
e 22 61
e 22 66
e 22 68
e 22 69
e 22 76
e 22 77
e 22 79
e 22 82
e 22 83
e 22 84
e 22 85
e 22 86
e 22 87
e 22 88
e 22 89
e 22 91
e 22 92
e 22 94
e 22 96
e 22 97
e 22 98
e 22 99
e 23 25
e 23 26
e 23 27
e 23 28
e 23 29
e 23 30
e 23 31
e 23 32
e 23 33
e 23 34
e 23 35
e 23 36
e 23 37
e 23 38
e 23 40
e 23 41
e 23 42
e 23 47
e 23 49
e 23 50
e 23 52
e 23 53
e 23 54
e 23 56
e 23 58
e 23 61
e 23 64
e 23 66
e 23 67
e 23 70
e 23 75
e 23 78
e 23 82
e 23 83
e 23 85
e 23 87
e 23 88
e 23 91
e 23 94
e 23 97
e 23 99
e 23 100
e 24 25
e 24 26
e 24 27
e 24 28
e 24 29
e 24 30
e 24 31
e 24 32
e 24 33
e 24 34
e 24 35
e 24 36
e 24 37
e 24 38
e 24 40
e 24 42
e 24 43
e 24 44
e 24 46
e 24 47
e 24 50
e 24 54
e 24 55
e 24 60
e 24 61
e 24 64
e 24 65
e 24 66
e 24 67
e 24 68
e 24 70
e 24 72
e 24 73
e 24 74
e 24 77
e 24 78
e 24 79
e 24 81
e 24 82
e 24 83
e 24 88
e 24 89
e 24 93
e 24 96
e 24 97
e 24 98
e 24 99
e 25 38
e 25 39
e 25 41
e 25 43
e 25 44
e 25 47
e 25 52
e 25 53
e 25 55
e 25 56
e 25 57
e 25 60
e 25 61
e 25 64
e 25 67
e 25 68
e 25 71
e 25 72
e 25 73
e 25 74
e 25 77
e 25 79
e 25 84
e 25 89
e 25 90
e 25 91
e 25 92
e 25 93
e 25 95
e 25 96
e 25 97
e 25 98
e 25 99
e 26 39
e 26 42
e 26 43
e 26 51
e 26 52
e 26 53
e 26 54
e 26 56
e 26 58
e 26 59
e 26 69
e 26 71
e 26 72
e 26 75
e 26 77
e 26 78
e 26 81
e 26 84
e 26 87
e 26 89
e 26 90
e 26 91
e 26 95
e 27 38
e 27 39
e 27 41
e 27 42
e 27 45
e 27 46
e 27 47
e 27 50
e 27 51
e 27 54
e 27 55
e 27 56
e 27 57
e 27 61
e 27 62
e 27 64
e 27 65
e 27 67
e 27 69
e 27 70
e 27 71
e 27 72
e 27 78
e 27 79
e 27 83
e 27 84
e 27 85
e 27 87
e 27 94
e 27 95
e 27 97
e 27 98
e 27 99
e 28 39
e 28 40
e 28 45
e 28 48
e 28 49
e 28 50
e 28 51
e 28 52
e 28 53
e 28 54
e 28 55
e 28 57
e 28 58
e 28 62
e 28 63
e 28 64
e 28 65
e 28 66
e 28 68
e 28 70
e 28 73
e 28 74
e 28 75
e 28 77
e 28 81
e 28 82
e 28 83
e 28 85
e 28 86
e 28 87
e 28 88
e 28 89
e 28 90
e 28 95
e 28 96
e 28 97
e 28 98
e 28 99
e 29 40
e 29 42
e 29 43
e 29 44
e 29 45
e 29 46
e 29 48
e 29 51
e 29 52
e 29 53
e 29 58
e 29 59
e 29 64
e 29 65
e 29 66
e 29 68
e 29 71
e 29 75
e 29 76
e 29 77
e 29 79
e 29 81
e 29 83
e 29 91
e 29 95
e 29 96
e 29 99
e 30 44
e 30 45
e 30 46
e 30 47
e 30 49
e 30 50
e 30 51
e 30 54
e 30 55
e 30 56
e 30 57
e 30 61
e 30 62
e 30 64
e 30 66
e 30 67
e 30 68
e 30 70
e 30 73
e 30 74
e 30 75
e 30 83
e 30 84
e 30 87
e 30 88
e 30 90
e 30 92
e 30 96
e 30 99
e 30 100
e 31 39
e 31 43
e 31 47
e 31 48
e 31 52
e 31 53
e 31 54
e 31 56
e 31 58
e 31 61
e 31 62
e 31 64
e 31 65
e 31 67
e 31 68
e 31 70
e 31 71
e 31 77
e 31 78
e 31 80
e 31 85
e 31 89
e 31 91
e 31 93
e 31 94
e 31 96
e 31 100
e 32 39
e 32 40
e 32 42
e 32 46
e 32 49
e 32 50
e 32 55
e 32 56
e 32 57
e 32 58
e 32 62
e 32 63
e 32 64
e 32 67
e 32 68
e 32 69
e 32 72
e 32 73
e 32 74
e 32 77
e 32 82
e 32 83
e 32 85
e 32 95
e 32 98
e 33 38
e 33 39
e 33 43
e 33 45
e 33 48
e 33 49
e 33 52
e 33 54
e 33 55
e 33 56
e 33 57
e 33 60
e 33 61
e 33 63
e 33 65
e 33 66
e 33 67
e 33 68
e 33 69
e 33 70
e 33 71
e 33 74
e 33 75
e 33 76
e 33 78
e 33 81
e 33 84
e 33 85
e 33 86
e 33 88
e 33 89
e 33 91
e 33 92
e 33 98
e 33 100
e 34 38
e 34 40
e 34 41
e 34 43
e 34 44
e 34 45
e 34 46
e 34 49
e 34 50
e 34 52
e 34 53
e 34 56
e 34 61
e 34 63
e 34 68
e 34 71
e 34 75
e 34 76
e 34 77
e 34 78
e 34 81
e 34 88
e 34 90
e 34 92
e 34 94
e 34 97
e 34 98
e 34 99
e 35 39
e 35 40
e 35 42
e 35 43
e 35 45
e 35 50
e 35 55
e 35 63
e 35 64
e 35 66
e 35 69
e 35 70
e 35 72
e 35 73
e 35 78
e 35 79
e 35 80
e 35 82
e 35 87
e 35 88
e 35 89
e 35 91
e 35 93
e 35 94
e 35 97
e 35 99
e 36 38
e 36 39
e 36 42
e 36 43
e 36 45
e 36 47
e 36 49
e 36 50
e 36 51
e 36 52
e 36 55
e 36 56
e 36 58
e 36 62
e 36 63
e 36 64
e 36 68
e 36 69
e 36 70
e 36 72
e 36 73
e 36 74
e 36 76
e 36 79
e 36 80
e 36 85
e 36 87
e 36 88
e 36 89
e 36 90
e 37 40
e 37 41
e 37 42
e 37 48
e 37 49
e 37 51
e 37 53
e 37 54
e 37 55
e 37 58
e 37 59
e 37 63
e 37 69
e 37 76
e 37 77
e 37 78
e 37 87
e 37 90
e 37 93
e 37 99
e 70 89
e 73 76
e 73 91
e 77 78
